n = 14;
lu = [|-155, 80
      |60, 173
      |-96, -90
      |62, 92
      |-77, 72
      |-41, 109
      |-150, -109
      |-56, 158
      |-94, 120
      |-138, 52
      |20, 64
      |-132, 60
      |-148, -64
      |-164, -116|];
